p cnf 35 308
-13 -16 0
-6 -10 0
-6 -7 -8 0
-2 -6 -7 0
-11 -14 0
-5 -8 -12 0
-2 -19 0
-4 -21 -22 0
-4 -11 -24 0
-6 -12 -23 0
-5 -11 -12 0
-6 -11 -21 0
-4 -11 -31 0
-6 -22 -23 0
-6 -20 -23 0
-23 -27 -30 0
-26 -27 -29 0
-23 -27 -32 0
-4 -25 0
-4 -11 -23 -28 0
-8 -35 0
-8 -9 -15 0
-11 -13 -18 0
-8 -13 -33 0
-4 -23 -32 0
-6 -8 -32 0
-6 -11 -24 0
-23 -26 -32 0
-25 -26 -32 0
-13 -27 -29 0
-21 -27 0
-2 -6 -22 0
-1 -7 0
-8 -14 -27 0
-10 -14 -34 0
-10 -15 -27 0
-8 -14 -16 0
-23 -33 0
-9 -15 -21 0
-3 -10 -15 0
-10 -21 -33 0
-2 -10 -15 -16 0
-2 -7 -15 0
-2 -12 -32 0
-23 -32 -34 0
-2 -22 -32 0
-2 -25 -32 0
-26 -31 0
-14 -16 -26 0
-4 -16 -21 0
-4 -17 -29 0
-4 -12 -14 0
-2 -17 -29 0
-1 -22 -27 0
-1 -9 -22 0
-1 -16 -22 0
-3 -16 -21 0
-3 -21 -22 0
-6 -7 -13 0
-7 -13 -14 0
-13 -17 -31 0
-13 -17 -25 -32 0
-6 -12 -13 -17 0
-14 -19 -26 0
-18 -26 -29 0
-21 -26 -28 0
-21 -26 -30 0
-12 -20 -26 -29 0
-5 -12 -26 0
-12 -14 -26 -35 0
-12 -14 -26 -33 0
-17 -26 -29 0
-25 -26 -34 0
-9 -14 -26 0
-20 -24 -26 -29 0
-20 -23 -26 -29 0
-20 -22 -26 -29 0
-20 -25 -26 -29 0
-2 -10 -32 0
-5 -8 -32 0
-8 -14 -26 -32 0
-10 -20 -26 -29 0
-4 -10 -14 0
-4 -10 -24 0
-4 -10 -21 0
-4 -10 -15 0
-23 -26 -30 0
-2 -22 -30 0
-26 -29 -30 0
-13 -26 -28 0
-26 -28 -29 0
-8 -26 -29 -33 0
-1 -4 -22 0
-4 -5 -10 0
-4 -11 -29 0
-3 -13 -22 0
-8 -13 -20 0
-3 -16 -23 0
-8 -15 -16 0
-8 -15 -20 0
-8 -15 -18 0
-3 -8 -15 -22 0
-7 -8 -15 0
-8 -12 -15 -27 0
-8 -11 -12 -15 0
-4 -11 -21 0
-13 -19 -26 0
-6 -8 -12 0
-4 -11 -13 -30 0
-2 -8 -20 0
-1 -8 -20 0
-1 -4 -12 0
-1 -11 -24 0
-1 -11 -12 0
-24 -26 -30 0
-24 -26 -32 0
-24 -26 -33 0
-3 -16 -24 -26 0
-24 -26 -28 0
-24 -26 -27 0
-10 -24 -34 0
-8 -21 -33 0
-1 -16 -21 0
-2 -16 -21 0
-11 -24 -34 0
-8 -24 -34 0
-9 -21 -34 0
-8 -16 -21 -34 0
-8 -21 -26 -32 0
-7 -8 -21 -34 0
-11 -21 -34 0
-8 -20 -21 -34 0
-19 -21 -26 -34 0
-8 -18 -21 -34 0
-10 -21 -34 0
-12 -13 -15 -17 0
-12 -21 -26 -34 0
-3 -12 -14 -26 0
-6 -8 -20 0
-8 -14 -17 0
-6 -8 -19 0
-23 -28 -34 0
-6 -8 -31 0
-2 -8 -31 0
-5 -8 -31 0
-8 -14 -28 0
-4 -8 -21 -32 0
-8 -15 -28 0
-8 -13 -28 0
-8 -21 -28 -34 0
-3 -9 -21 0
-1 -9 -10 0
-1 -9 -21 0
-11 -15 -21 0
-5 -11 -31 0
-5 -10 -11 0
-5 -11 -21 0
-11 -24 -35 0
-11 -23 -35 0
-10 -11 -35 0
-11 -21 -35 0
-9 -21 -33 0
-13 -17 -19 0
-6 -13 -17 -24 0
-13 -17 -30 0
-13 -17 -29 0
-13 -17 -28 0
-6 -13 -17 -22 0
-6 -18 -21 -26 0
-6 -17 -21 -26 0
-17 -21 -26 -32 0
-18 -21 -26 -32 0
-4 -17 -21 0
-14 -18 -26 0
-13 -18 -26 0
-5 -18 -21 -26 0
-18 -21 -26 -35 0
-15 -18 -21 -26 0
-2 -18 -21 -26 0
-18 -21 -26 -33 0
-18 -21 -26 -34 0
-3 -10 -21 0
-1 -12 -20 -26 0
-1 -19 -26 0
-19 -26 -29 0
-16 -26 -29 0
-5 -10 -16 -26 0
-5 -16 -24 -26 0
-5 -16 -23 -26 0
-5 -16 -21 -26 0
-6 -8 -16 -21 0
-5 -7 -26 -29 0
-5 -8 -9 -29 0
-5 -7 -8 0
-5 -8 -9 -21 0
-8 -15 -17 -21 0
-5 -17 -21 -26 0
-5 -8 -20 0
-8 -14 -20 0
-7 -8 -14 0
-7 -14 -26 0
-14 -17 -26 0
-9 -15 -25 -26 0
-24 -26 -35 0
-23 -26 -35 0
-2 -12 -35 0
-1 -6 -12 -26 0
-4 -5 -12 0
-5 -12 -13 -27 0
-1 -12 -17 0
-1 -10 -27 0
-5 -19 -23 -27 0
-1 -17 -25 0
-1 -17 -29 0
-1 -17 -19 0
-1 -4 -19 0
-23 -27 -31 0
-13 -27 -31 0
-2 -20 -25 0
-2 -16 -25 0
-2 -25 -27 0
-2 -25 -33 0
-2 -25 -34 0
-9 -13 -15 0
-3 -23 -30 0
-6 -23 -30 0
-2 -25 -30 0
-5 -10 -34 0
-10 -34 -35 0
-10 -15 -34 0
-10 -13 -18 -34 0
-1 -10 -34 0
-1 -10 -16 0
-9 -10 -15 0
-5 -7 -13 0
-7 -13 -20 0
-7 -13 -35 0
-7 -13 -18 0
-2 -8 -22 -28 0
-2 -8 -23 -28 0
-2 -8 -25 -28 0
-2 -8 -21 -28 0
-2 -17 -21 -30 0
-2 -23 -30 0
-2 -7 -16 -24 0
-2 -8 -18 0
-2 -16 -22 0
-2 -22 -33 0
-2 -7 -32 0
-6 -8 -15 -30 0
-8 -15 -33 0
-5 -8 -29 -33 0
-6 -8 -29 -30 0
-6 -8 -16 -29 0
-6 -8 -27 -29 0
-6 -8 -16 -24 0
-6 -8 -24 -28 0
-6 -8 -24 -27 0
-6 -8 -18 0
-6 -8 -24 -30 0
-6 -8 -24 -33 0
-6 -8 -25 0
-8 -9 -14 0
-6 -8 -13 -30 0
-6 -8 -22 0
-5 -11 -29 0
-1 -11 -29 0
-4 -23 -30 0
-4 -8 -31 0
-3 -8 -12 -14 0
-8 -14 -25 -34 0
-10 -13 -32 -34 0
-23 -25 -34 0
-10 -13 -29 -34 0
-10 -13 -25 -34 0
-10 -13 -19 -34 0
-4 -13 -19 0
-13 -19 -27 0
-13 -24 -27 0
-23 -25 -27 0
-13 -25 -27 0
-7 -13 -27 -32 0
-4 -12 -13 -30 0
-13 -27 -30 0
-7 -13 -28 0
-4 -12 -31 0
-4 -19 -29 0
-4 -7 -29 0
-4 -22 -29 0
-11 -15 -24 0
-2 -11 -16 -24 0
-2 -11 -20 -24 0
-2 -11 -31 0
-2 -12 -31 0
-2 -6 -25 0
-9 -15 -23 0
-3 -23 -25 0
-23 -34 -35 0
-23 -24 -34 0
-2 -20 -23 0
-23 -31 -34 0
-6 -18 -23 -34 0
-13 -18 -23 -34 0
-9 -13 -14 0
-6 -9 -13 -29 0
-5 -9 -13 -29 0
-4 -9 -23 -29 0
-1 -4 -10 0
